NAME: random-36-13740
TYPE: TSP
COMMENT: size=36 seed=13740
DIMENSION: 74
EDGE_WEIGHT_TYPE: EUC_2D
NODE_COORD_SECTION
+0 180 131
-0 180 131
+1 160 104
-1 598 151
+2 569 886
-2 557 108
+3 281 755
-3 482 354
+4 993 525
-4 204 934
+5 28 968
-5 136 932
+6 378 140
-6 99 72
+7 235 702
-7 751 856
+8 798 736
-8 289 97
+9 736 989
-9 908 247
+10 662 780
-10 757 543
+11 603 594
-11 54 55
+12 251 768
-12 183 312
+13 171 841
-13 728 911
+14 212 589
-14 876 916
+15 717 836
-15 89 959
+16 8 31
-16 548 758
+17 486 9
-17 807 74
+18 771 535
-18 234 853
+19 557 504
-19 939 506
+20 122 426
-20 414 767
+21 517 397
-21 295 311
+22 136 944
-22 132 444
+23 866 36
-23 193 759
+24 173 766
-24 220 131
+25 586 217
-25 478 570
+26 916 382
-26 805 42
+27 639 657
-27 138 133
+28 807 514
-28 405 377
+29 915 79
-29 780 456
+30 650 696
-30 33 196
+31 557 776
-31 378 688
+32 645 666
-32 91 627
+33 625 913
-33 833 971
+34 998 411
-34 191 894
+35 724 771
-35 393 535
+36 870 48
-36 244 93
PRECEDENCE_SECTION
+0 -0
+1 -1
+2 -2
+3 -3
+4 -4
+5 -5
+6 -6
+7 -7
+8 -8
+9 -9
+10 -10
+11 -11
+12 -12
+13 -13
+14 -14
+15 -15
+16 -16
+17 -17
+18 -18
+19 -19
+20 -20
+21 -21
+22 -22
+23 -23
+24 -24
+25 -25
+26 -26
+27 -27
+28 -28
+29 -29
+30 -30
+31 -31
+32 -32
+33 -33
+34 -34
+35 -35
+36 -36
EOF
